LengthSchedulingHorizon=4896;
nAttributes=2;
SetupCosts=[[0, 0], [11, 11], [11, 11]];
SetupTimes=[[0, 0], [23, 23], [23, 23]];
nMachines=5;
MinCap=[0, 0, 0, 0, 0];
MaxCap=[72, 33, 5, 100, 30];

initState=[1, 2, 1, 2, 2];
nShifts=5;
ShiftStartTimes = [[0, 0, 0, 0, 25], [0, 213, 1614, 3918, 4171], [0, 1223, 1253, 3058, 3698], [699, 894, 1509, 3292, 3837], [0, 0, 0, 269, 3410]];
ShiftEndTimes = [[0, 0, 0, 0, 4023], [0, 1439, 3469, 4119, 4714], [0, 1250, 2617, 3567, 4622], [884, 1358, 3047, 3722, 4734], [0, 0, 0, 3167, 4771]];
nJobs=50;
EligibleMachines = [{1, 5}, {1, 2, 3}, {3, 5}, {1, 2}, {2}, {1, 3}, {1, 3, 4}, {2, 3, 5}, {1}, {1, 5}, {5}, {1, 4}, {2, 5}, {1, 2}, {5}, {2, 3}, {5}, {1, 4, 5}, {1, 2, 5}, {2, 5}, {2}, {1}, {4}, {5}, {3, 5}, {4}, {4}, {1}, {1}, {3, 5}, {1, 4}, {5}, {2, 3, 4}, {2}, {3, 4, 5}, {1, 4}, {4}, {4}, {1}, {1, 2}, {2, 4, 5}, {3}, {1, 2, 3, 5}, {5}, {5}, {3}, {1}, {2, 3}, {2}, {1, 2}];
EarliestStart=[126, 64, 157, 151, 53, 129, 42, 129, 42, 161, 154, 27, 78, 105, 223, 135, 112, 83, 204, 119, 98, 129, 228, 127, 138, 194, 8, 103, 196, 37, 172, 207, 96, 2, 98, 73, 113, 166, 200, 10, 201, 99, 79, 145, 111, 143, 176, 211, 111, 68];
LatestEnd=[201, 159, 284, 211, 103, 218, 221, 207, 56, 250, 228, 104, 83, 185, 233, 137, 165, 193, 257, 251, 129, 306, 242, 199, 285, 246, 15, 130, 348, 87, 242, 214, 202, 41, 176, 154, 120, 228, 209, 145, 266, 111, 168, 155, 239, 250, 258, 256, 216, 89];
MinTime=[51, 87, 68, 32, 41, 88, 90, 68, 9, 51, 54, 42, 5, 53, 10, 2, 28, 100, 40, 96, 25, 91, 13, 59, 81, 35, 6, 23, 80, 47, 43, 5, 62, 28, 48, 41, 7, 45, 7, 94, 65, 10, 87, 10, 87, 64, 65, 33, 60, 15];
MaxTime=[100, 100, 100, 100, 100, 100, 100, 100, 100, 100, 100, 100, 100, 100, 100, 100, 100, 100, 100, 100, 100, 100, 100, 100, 100, 100, 100, 100, 100, 100, 100, 100, 100, 100, 100, 100, 100, 100, 100, 100, 100, 100, 100, 100, 100, 100, 100, 100, 100, 100];
JobSize=[2, 5, 4, 3, 5, 5, 1, 3, 4, 3, 2, 2, 5, 5, 5, 3, 5, 5, 1, 5, 3, 3, 2, 5, 3, 4, 3, 3, 1, 2, 2, 4, 4, 2, 5, 2, 1, 5, 1, 3, 1, 5, 2, 2, 5, 1, 5, 4, 5, 4];
Attribute=[1, 2, 2, 2, 1, 1, 1, 1, 1, 2, 1, 1, 1, 1, 2, 1, 1, 1, 1, 1, 2, 1, 2, 2, 2, 2, 1, 1, 1, 2, 1, 1, 1, 2, 2, 1, 1, 2, 1, 1, 2, 1, 1, 2, 1, 1, 2, 2, 2, 2];

upper_bound_integer_objective=3036000;
mult_factor_total_runtime=506;
mult_factor_finished_toolate=24288;
mult_factor_total_setuptimes=0;
mult_factor_total_setupcosts=1104;
running_time_bound=2351;
min_duration=2;
max_duration=100;
max_setup_time=23;
max_setup_cost=11;
